0 8087399
325 7752588
650 7543148
975 7449993
1300 7357965
1625 7311945
1950 7269431
2275 7228428
2600 7219186
2925 7210554
3250 7201729
3575 7193104
3900 7188679
4225 7185962
4550 7164375
4875 7155347
5200 7147200
5525 7143131
5850 7142592
6175 7142198
6500 7142075
6825 7142071
7150 7142056
